(set-logic LIA)

(declare-const y Int)
(declare-const y! Int)
(declare-const x Int)
(declare-const x! Int)
(declare-const j Int)
(declare-const j! Int)
(declare-const i Int)
(declare-const i! Int)

(declare-const y_18 Int)
(declare-const x_0 Int)
(declare-const j_26 Int)
(declare-const j_20 Int)
(declare-const j_16 Int)
(declare-const i_25 Int)
(declare-const i_19 Int)
(declare-const i_17 Int)

(define-fun inv-f((i Int)(j Int)(x Int)(y Int)) Bool
